benchmarks_vrp/CMT2/fixed_c/CMT2_0.vrp
NAME: CMT2_0
TYPE: CVRP
COMMENT: 835.26 - Cluster Nr.0
DIMENSION: 14
CAPACITY: 140
EDGE_WEIGHT_TYPE: EUC_2D
NODE_COORD_TYPE: TWOD_COORDS
NODE_COORD_SECTION: 
11 55 50
13 55 45
4 41 46
1 55 34
12 51 42
14 40 40
2 45 35
9 62 48
10 50 40
3 45 42
6 62 35
7 67 41
8 54 38
5 50 50
DEPOT_SECTION: 
14
-1
DEMAND_SECTION: 
1 17
4 18
10 19
11 10
14 0
8 19
6 12
7 16
9 15
2 30
3 30
13 16
5 15
12 27
EOF
