benchmarks_vrp/CMT2/fixed_c/CMT2_0.tour
NAME: CMT2_0 solution
TYPE: TOUR
TOUR_SECTION:
14 3 12 10 2 -1
14 8 1 6 7 9 13 11 5 4 -1
-1
EOF